c --- [ banner ] -------------------------------------------------------------
c 
c CaDiCaL Radically Simplified CDCL SAT Solver
c Copyright (c) 2016-2021 A. Biere, M. Fleury, N. Froleyks
c 
c Version 1.5.2 ca9bff05c11bde5eae4912f9932871d1527e61d8
c g++ (GCC) 9.3.0 -Wall -Wextra -O3 -DNDEBUG
c Thu Mar 31 01:52:53 EDT 2022 Linux gra-login3 3.10.0-1160.59.1.el7.x86_64 x86_64
c 
c --- [ limit ] --------------------------------------------------------------
c 
c setting conflict limit to 200000 conflicts (due to '200000')
c 
c --- [ parsing input ] ------------------------------------------------------
c 
c reading DIMACS file from '5.cubes56.adj'
c opening file to read '5.cubes56.adj'
c found 'p cnf 5320 922647' header
c parsed 922647 clauses in 8.61 seconds process time
c closing file '5.cubes56.adj'
c after reading 673840279 bytes 642.6 MB
c 
c --- [ options ] ------------------------------------------------------------
c 
c all options are set to their default value
c 
c --- [ solving ] ------------------------------------------------------------
c 
c time measured in process time since initialization
c 
c  seconds   reductions  redundant  irredundant
c          MB    restarts       trail      variables
c           level   conflicts       glue        remaining
c 
c *  8.61 672  0 0   0    0    0  0% 0 922009 4352 82%
c {  9.35 716  0 0   0    0    0  0% 0 922009 4352 82%
c i 11.84 758 81 0  10  105   82 38% 11 922009 4351 82%
c i 12.70 765 79 0  18  135  108 39% 11 922009 4342 82%
c - 17.06 752 54 1  39  301  207 38% 14 498411 4336 82%
c i 21.08 761 58 1  92  681  406 38% 21 498411 4335 81%
c i 22.22 762 59 1 119  806  509 40% 23 498411 4334 81%
c i 23.01 763 57 1 125  938  573 40% 22 498411 4333 81%
c } 23.89 764 60 1 139 1000  623 40% 23 498411 4333 81%
c [ 23.89 764  0 1 139 1000  623  0% 0 498411 4333 81%
c O 23.92 764 71 1 139 1004  626 51% 19 498411 4333 81%
c i 23.93 764 36 1 139 1007  628 37% 10 498411 4311 81%
c i 24.13 764 14 1 139 1077  662 39% 9 498411 4310 81%
c i 24.23 764 17 1 139 1121  699 46% 12 498411 4309 81%
c - 25.33 1037 17 2 139 1319  775 53% 14 498019 4309 81%
c i 25.59 1037 17 2 139 1361  814 54% 14 498019 4308 81%
c i 25.68 1037 18 2 139 1431  874 55% 15 498019 4307 81%
c i 25.72 1037 19 2 139 1495  927 55% 15 498019 4306 81%
c - 27.33 1036 25 3 140 2848 1655 55% 21 498010 4306 81%
c ] 27.94 1036 25 3 140 3003 1768 42% 21 498010 4306 81%
c 
c  seconds    reductions  redundant   irredundant
c          MB     restarts       trail       variables
c            level   conflicts       glue         remaining
c 
c { 27.94 1036 60 3 140 3003 1768 50% 23 498010 4306 81%
c F 28.07 1036 60 3 141 3006 1770 50% 23 498010 4306 81%
c i 28.07 1036 60 3 141 3006 1770 50% 23 498010 4259 80%
c i 28.53 1036 56 3 145 3090 1825 47% 22 498010 4258 80%
c i 28.64 1036 56 3 145 3104 1838 47% 22 498010 4257 80%
c i 30.17 1036 58 3 163 3298 1988 46% 23 498010 4256 80%
c i 31.77 1036 58 3 190 3436 2061 44% 23 498010 4255 80%
c i 31.91 1036 58 3 191 3442 2066 44% 24 498010 4254 80%
c i 33.98 1036 61 3 224 3567 2183 43% 25 498010 4253 80%
c i 34.51 1036 61 3 230 3594 2209 43% 25 498010 4252 80%
c i 35.11 1036 62 3 242 3641 2250 43% 26 498010 4251 80%
c i 36.35 1036 63 3 267 3789 2333 42% 26 498010 4250 80%
c i 36.78 1036 62 3 269 3844 2380 42% 26 498010 4249 80%
c i 37.13 1036 62 3 270 3876 2405 42% 26 498010 4248 80%
c i 38.45 1036 64 3 285 3996 2503 41% 27 498010 4247 80%
c i 38.48 1036 64 3 287 4002 2508 41% 27 498010 4246 80%
c i 38.53 1036 64 3 287 4023 2525 41% 27 498010 4245 80%
c i 40.01 1036 65 3 317 4183 2624 41% 28 498010 4244 80%
c i 40.08 1036 65 3 317 4202 2641 40% 28 498010 4243 80%
c i 40.09 1036 65 3 317 4215 2651 40% 28 498010 4242 80%
c 
c  seconds    reductions  redundant   irredundant
c          MB     restarts       trail       variables
c            level   conflicts       glue         remaining
c 
c i 41.42 1036 67 3 342 4338 2758 40% 29 498010 4241 80%
c i 42.80 1036 69 3 369 4522 2904 40% 30 498010 4240 80%
c i 44.67 1036 70 3 407 4771 3097 39% 31 498010 4239 80%
c - 45.66 1020 68 4 407 4888 2260 40% 30 497112 4239 80%
c i 46.30 1020 68 4 417 4985 2348 40% 30 497112 4238 80%
c d 47.10 1020 68 4 417 5000 2360 40% 30 482184 4229 79%
c 3 47.15 1020 68 4 417 5000 3647 40% 30 482184 4229 79%
c 2 47.26 1020 68 4 417 5000 3804 40% 30 482105 4207 79%
c p 55.94 1019 68 4 417 5000 8565 40% 30 482105 4151 78%
c d 56.91 1019 68 4 417 5000 8206 40% 30 481404 4149 78%
c # 62.43 1019 64 4 489 6007 8992 40% 29 481404 4149 78%
c } 71.74 1019 68 4 622 7005 9786 39% 31 481404 4149 78%
c [ 71.74 1019 25 4 622 7005 9786 42% 21 481404 4149 78%
c - 72.63 907 24 5 623 7437 3435 45% 20 481404 4149 78%
c I 75.29 907 23 5 624 10008 4974 47% 19 481404 4149 78%
c - 77.09 907 38 6 625 10466 3756 46% 29 481404 4149 78%
c - 81.16 908 76 7 627 13999 4485 44% 59 481404 4149 78%
c 2 81.79 908 77 7 627 15002 6705 44% 60 481389 4149 78%
c p 84.73 908 77 7 627 15002 11606 44% 60 481389 4149 78%
c ] 85.02 908 77 7 627 15008 11611 44% 60 481389 4149 78%
c 
c  seconds   reductions    redundant   irredundant
c          MB    restarts         trail       variables
c           level    conflicts        glue         remaining
c 
c { 85.02 908 68 7 627 15008 11611 39% 31 481389 4149 78%
c B 85.31 908 68 7 627 15009 11612 39% 31 481389 4149 78%
c s 86.98 908 66 7 646 15457 11721 40% 31 479642 4149 78%
c v 98.87 908 66 7 646 15457 11721 40% 31 479493 4149 78%
c t 99.19 908 66 7 646 15457 11704 40% 31 479465 4149 78%
c e 101.60 911 66 7 646 15457 7531 40% 31 474183 1655 31%
c s 101.74 911 66 7 646 15457 7530 40% 31 473890 1655 31%
c } 107.16 909 61 7 717 17087 8781 61% 30 473890 1655 31%
c 1 107.16 909 61 7 717 17087 8781 61% 30 473890 1655 31%
c 
c --- [ writing output ] -----------------------------------------------------
c 
c writing simplified CNF to DIMACS file 'simp/5.cubes56.adj.simp1'
c * 107.16 909 61 7 717 17087 8781 61% 30 473890 1655 31%
c opening file to write 'simp/5.cubes56.adj.simp1'
c writing 'p cnf 5320 473890' header
c closing file 'simp/5.cubes56.adj.simp1'
c after writing 265972454 bytes 253.7 MB
c wrote 473890 clauses in 1.93 seconds process time
c 
c --- [ writing extension ] --------------------------------------------------
c 
c writing extension stack to 'simp/5.cubes56.adj.ext1'
c opening file to write 'simp/5.cubes56.adj.ext1'
c closing file 'simp/5.cubes56.adj.ext1'
c after writing 168264 bytes 0.2 MB
c wrote 7206 witnesses in 0.00 seconds process time
c 
c --- [ result ] -------------------------------------------------------------
c 
s SATISFIABLE
c 
c --- [ run-time profiling ] -------------------------------------------------
c 
c process time taken by individual solving procedures
c (percentage relative to process time for solving)
c 
c        67.95   68.95% search
c        52.98   53.76% unstable
c        30.60   31.05% simplify
c        14.22   14.43% stable
c        12.14   12.32% vivify
c        11.62   11.79% probe
c         8.61    8.74% parse
c         4.47    4.53% elim
c         0.74    0.75% lucky
c         0.26    0.26% subsume
c         0.16    0.16% ternary
c   =================================
c        98.55   90.34% solve
c 
c last line shows process time for solving
c (percentage relative to total process time)
c 
c --- [ statistics ] ---------------------------------------------------------
c 
c chronological:              3815        22.33 %  of conflicts
c conflicts:                 17087       173.38    per second
c decisions:                 90634       919.67    per second
c eliminated:                 2494        46.88 %  of all variables
c fixed:                      1160        21.80 %  of all variables
c learned:                   16706        97.77 %  per conflict
c learned_lits:            4237334       100.00 %  learned literals
c minimized:                     0         0.00 %  learned literals
c shrunken:                2483923        58.62 %  learned literals
c minishrunken:             294586         6.95 %  learned literals
c propagations:            4109103         0.04 M  per second
c reduced:                    5744        33.62 %  per conflict
c rephased:                      5      3417.40    interval
c restarts:                    717        23.83    interval
c stabilizing:                   2        58.56 %  of conflicts
c substituted:                  11         0.21 %  of all variables
c subsumed:                   7036         0.36 %  of all clauses
c strengthened:              10334         0.53 %  of all clauses
c ternary:                    2959         0.33 %  of resolved
c vivified:                    150         0.01 %  of all clauses
c weakened:                   6046         3.24    average size
c 
c seconds are measured in process time for solving
c 
c --- [ resources ] ----------------------------------------------------------
c 
c total process time since initialization:       109.09    seconds
c total real time since initialization:          109.17    seconds
c maximum resident set size of process:         1309.17    MB
c 
c --- [ shutting down ] ------------------------------------------------------
c 
c exit 10
WARNING! DIMACS header mismatch: wrong number of variables.
============================[ Problem Statistics ]=============================
|                                                                             |
|  Number of variables:          4281                                         |
|  Number of clauses:          473892                                         |
|  Parse time:                   3.50 s                                       |
|  Simplification time:          0.07 s                                       |
|                                                                             |
============================[ Search Statistics ]====================================================
| Conflicts |          ORIGINAL         |          LEARNT          | Num Sols |      SUBGRAPHS      |
|           |    Vars  Clauses Literals |    Limit  Clauses Lit/Cl |          | Canonical Noncanon. |
=====================================================================================================
|       102 |    4224   473894 60006671 |     2000      102    127 |        0 |        24         2 |
|       256 |    4224   473898 60006958 |     2000      256    148 |        0 |        34         6 |
|       552 |    4224   473969 60009658 |     2000      552    118 |        0 |        71        77 |
|       890 |    4224   473970 60009738 |     2000      890    130 |        0 |        77        78 |
|      1411 |    4224   473985 60009996 |     2000     1411    151 |        0 |        91        93 |
|      2521 |    4224   474336 60017371 |     3601     1522     55 |        0 |       227       444 |
|      6124 |    4224   476800 60075546 |     5004     3328     42 |        0 |       991      2908 |
|      7886 |    4224   476854 60078070 |     6313     2599     22 |        0 |      1022      2962 |
|     10837 |    4224   477243 60087321 |     6313     5550     83 |        0 |      1154      3351 |
|     14895 |    4224   477457 60092706 |     7562     6457     79 |        0 |      1294      3565 |
|     21057 |    4224   477853 60101657 |     9996     4453     16 |        0 |      1456      3961 |
|     30204 |    4224   478351 60113589 |    11203     8607     63 |        0 |      1723      4459 |
|     43556 |    4224   478729 60122809 |    13610    10166     72 |        0 |      1858      4837 |
|     67765 |    4224   483477 60236085 |    17217    12182     58 |        0 |      2829      9585 |
|     98014 |    4224   484534 60257566 |    20820    14834     66 |        0 |      3012     10642 |
|    143752 |    4224   486483 60294015 |    25607    15359     51 |        0 |      3267     12591 |
|    212718 |    4224   489765 60355718 |    30422    29540     83 |        0 |      3684     15873 |
|    322907 |    4224   501428 60638374 |    38814    20721     39 |        0 |      5407     27536 |
|    492127 |    4224   522859 61274223 |    47215    41542     81 |        0 |      7880     48967 |
|    740348 |    4224   549397 62063777 |    58020    55768     95 |        0 |     10836     75505 |
|   1081951 |    4224   558475 62311766 |    71218    45369     64 |        0 |     14064     84583 |
|   1590953 |    4224   568689 62589963 |    86811    44764     47 |        0 |     17308     94797 |
|   2345821 |    4224   575375 62794322 |   104824    85645     90 |        0 |     18518    101483 |
|   3548411 |    4224   655691 64968940 |   128826   126237     88 |        2 |     26400    181797 |
|   5439620 |    4224   863489 70156375 |   160030   148050     93 |        2 |     36446    389595 |
|   8180962 |    4224  1079715 74470807 |   197211   130373     64 |        4 |     44972    605819 |
|  12151943 |    4224  1263021 78506306 |   240436   173779     77 |       16 |     52422    789113 |
|  18062626 |    4224  1492192 84879511 |   293236   228062     77 |       26 |     73644   1018274 |
|  27023525 |    4224  1930822 93207542 |   359250   234975     60 |       29 |    110485   1456901 |
|  40092863 |    4224  2216757 99722888 |   437234   382297     79 |       38 |    131859   1742827 |
|  59692196 |    4224  2640985 108673178 |   534415   331011     52 |       47 |    166774   2167046 |
slurmstepd: error: *** JOB 59210992 ON gra745 CANCELLED AT 2022-04-01T02:37:04 DUE TO TIME LIMIT ***
